
Gurobi 11.0.3 (linux64) logging started Mon 18 Nov 2024 10:03:18 PM CST

Set parameter LogFile to value "/home/dlcole3/graph_abstraction/hierarchical_graphs/git_storage/CS1/HP_low_reserves/gurobi_logs/serial/logfile_ST15_5.log"

Gurobi 11.0.3 (linux64) logging started Mon 18 Nov 2024 10:10:48 PM CST

Set parameter LogFile to value "/home/dlcole3/graph_abstraction/hierarchical_graphs/git_storage/CS1/HP_low_reserves/gurobi_logs/serial/logfile_ST15_5.log"
Gurobi Optimizer version 11.0.3 build v11.0.3rc0 (linux64 - "Ubuntu 18.04.3 LTS")

CPU model: Intel(R) Xeon(R) CPU E5-2698 v4 @ 2.20GHz, instruction set [SSE2|AVX|AVX2]
Thread count: 40 physical cores, 80 logical processors, using up to 20 threads

Optimize a model with 29168 rows, 50688 columns and 136175 nonzeros
Model fingerprint: 0x8bf60772
Variable types: 46944 continuous, 3744 integer (3744 binary)
Coefficient statistics:
  Matrix range     [6e-01, 2e+04]
  Objective range  [2e+00, 2e+04]
  Bounds range     [5e-02, 2e+05]
  RHS range        [5e-02, 7e+03]
Presolve removed 14127 rows and 38566 columns
Presolve time: 0.36s
Presolved: 15041 rows, 12122 columns, 63700 nonzeros
Variable types: 9163 continuous, 2959 integer (2959 binary)
Found heuristic solution: objective 166280.94266
Found heuristic solution: objective 157693.69979
Found heuristic solution: objective 131152.00285

Root relaxation: objective 2.966357e+04, 8677 iterations, 0.40 seconds (0.27 work units)

    Nodes    |    Current Node    |     Objective Bounds      |     Work
 Expl Unexpl |  Obj  Depth IntInf | Incumbent    BestBd   Gap | It/Node Time

     0     0 29663.5712    0    5 131152.003 29663.5712  77.4%     -    1s
H    0     0                    67589.765027 29663.5712  56.1%     -    1s
H    0     0                    67589.765017 29663.5712  56.1%     -    1s
H    0     0                    31094.587336 29663.5712  4.60%     -    1s
     0     0 29663.5712    0    5 31094.5873 29663.5712  4.60%     -    1s
     0     0 29663.5712    0    1 31094.5873 29663.5712  4.60%     -    2s
     0     0 29663.5712    0    2 31094.5873 29663.5712  4.60%     -    2s
     0     0 29663.5712    0    1 31094.5873 29663.5712  4.60%     -    2s
H    0     0                    31094.587291 29663.5712  4.60%     -    2s
     0     0 29663.5712    0    2 31094.5873 29663.5712  4.60%     -    2s
     0     0 29684.0557    0    2 31094.5873 29684.0557  4.54%     -    2s
     0     2 29684.0557    0    2 31094.5873 29684.0557  4.54%     -    2s
H   28    39                    31094.586889 29684.0557  4.54%   7.8    3s
H   40    39                    30173.311597 29684.0856  1.62%   8.1    3s
H  107    54                    30167.094047 29840.5776  1.08%   5.4    3s
H  107    54                    30166.827962 29840.5776  1.08%   5.4    3s

Cutting planes:
  Gomory: 2

Explored 433 nodes (16448 simplex iterations) in 3.74 seconds (2.21 work units)
Thread count was 20 (of 80 available processors)

Solution count 8: 30166.8 30173.3 31094.6 ... 228137

Optimal solution found (tolerance 3.00e-03)
Best objective 3.016682796234e+04, best bound 3.014479862016e+04, gap 0.0730%

User-callback calls 2532, time in user-callback 0.00 sec
